(set-option :produce-models true)
(set-logic QF_LRA)
(declare-fun Produces_1_1 () Int)
(declare-fun Compras_1_1 () Int)
(declare-fun AceiteDisponible_1_1 () Int)
(declare-fun Produces_1_2 () Int)
(declare-fun Compras_1_2 () Int)
(declare-fun AceiteDisponible_1_2 () Int)
(declare-fun Produces_1_3 () Int)
(declare-fun Compras_1_3 () Int)
(declare-fun AceiteDisponible_1_3 () Int)
(declare-fun Produces_1_4 () Int)
(declare-fun Compras_1_4 () Int)
(declare-fun AceiteDisponible_1_4 () Int)
(declare-fun Produces_1_5 () Int)
(declare-fun Compras_1_5 () Int)
(declare-fun AceiteDisponible_1_5 () Int)
(declare-fun Produces_2_1 () Int)
(declare-fun Compras_2_1 () Int)
(declare-fun AceiteDisponible_2_1 () Int)
(declare-fun Produces_2_2 () Int)
(declare-fun Compras_2_2 () Int)
(declare-fun AceiteDisponible_2_2 () Int)
(declare-fun Produces_2_3 () Int)
(declare-fun Compras_2_3 () Int)
(declare-fun AceiteDisponible_2_3 () Int)
(declare-fun Produces_2_4 () Int)
(declare-fun Compras_2_4 () Int)
(declare-fun AceiteDisponible_2_4 () Int)
(declare-fun Produces_2_5 () Int)
(declare-fun Compras_2_5 () Int)
(declare-fun AceiteDisponible_2_5 () Int)
(declare-fun Produces_3_1 () Int)
(declare-fun Compras_3_1 () Int)
(declare-fun AceiteDisponible_3_1 () Int)
(declare-fun Produces_3_2 () Int)
(declare-fun Compras_3_2 () Int)
(declare-fun AceiteDisponible_3_2 () Int)
(declare-fun Produces_3_3 () Int)
(declare-fun Compras_3_3 () Int)
(declare-fun AceiteDisponible_3_3 () Int)
(declare-fun Produces_3_4 () Int)
(declare-fun Compras_3_4 () Int)
(declare-fun AceiteDisponible_3_4 () Int)
(declare-fun Produces_3_5 () Int)
(declare-fun Compras_3_5 () Int)
(declare-fun AceiteDisponible_3_5 () Int)
(declare-fun Produces_4_1 () Int)
(declare-fun Compras_4_1 () Int)
(declare-fun AceiteDisponible_4_1 () Int)
(declare-fun Produces_4_2 () Int)
(declare-fun Compras_4_2 () Int)
(declare-fun AceiteDisponible_4_2 () Int)
(declare-fun Produces_4_3 () Int)
(declare-fun Compras_4_3 () Int)
(declare-fun AceiteDisponible_4_3 () Int)
(declare-fun Produces_4_4 () Int)
(declare-fun Compras_4_4 () Int)
(declare-fun AceiteDisponible_4_4 () Int)
(declare-fun Produces_4_5 () Int)
(declare-fun Compras_4_5 () Int)
(declare-fun AceiteDisponible_4_5 () Int)
(declare-fun Produces_5_1 () Int)
(declare-fun Compras_5_1 () Int)
(declare-fun AceiteDisponible_5_1 () Int)
(declare-fun Produces_5_2 () Int)
(declare-fun Compras_5_2 () Int)
(declare-fun AceiteDisponible_5_2 () Int)
(declare-fun Produces_5_3 () Int)
(declare-fun Compras_5_3 () Int)
(declare-fun AceiteDisponible_5_3 () Int)
(declare-fun Produces_5_4 () Int)
(declare-fun Compras_5_4 () Int)
(declare-fun AceiteDisponible_5_4 () Int)
(declare-fun Produces_5_5 () Int)
(declare-fun Compras_5_5 () Int)
(declare-fun AceiteDisponible_5_5 () Int)
(declare-fun Produces_6_1 () Int)
(declare-fun Compras_6_1 () Int)
(declare-fun AceiteDisponible_6_1 () Int)
(declare-fun Produces_6_2 () Int)
(declare-fun Compras_6_2 () Int)
(declare-fun AceiteDisponible_6_2 () Int)
(declare-fun Produces_6_3 () Int)
(declare-fun Compras_6_3 () Int)
(declare-fun AceiteDisponible_6_3 () Int)
(declare-fun Produces_6_4 () Int)
(declare-fun Compras_6_4 () Int)
(declare-fun AceiteDisponible_6_4 () Int)
(declare-fun Produces_6_5 () Int)
(declare-fun Compras_6_5 () Int)
(declare-fun AceiteDisponible_6_5 () Int)
(assert (<= ( +  ( * 9 Produces_1_1 ( +  ( * 6 Produces_1_2 ( +  ( * 2 Produces_1_3 ( +  ( * 4 Produces_1_4 ( +  ( * 5 Produces_1_5 ( +  ( * 9 Produces_1_6 ( +  ( * 6 Produces_2_1 ( +  ( * 2 Produces_2_2 ( +  ( * 4 Produces_2_3 ( +  ( * 5 Produces_2_4 ( +  ( * 9 Produces_2_5 ( +  ( * 6 Produces_2_6 ( +  ( * 2 Produces_3_1 ( +  ( * 4 Produces_3_2 ( +  ( * 5 Produces_3_3 ( +  ( * 9 Produces_3_4 ( +  ( * 6 Produces_3_5 ( +  ( * 2 Produces_3_6 ( +  ( * 4 Produces_4_1 ( +  ( * 5 Produces_4_2 ( +  ( * 9 Produces_4_3 ( +  ( * 6 Produces_4_4 ( +  ( * 2 Produces_4_5 ( +  ( * 4 Produces_4_6 ( +  ( * 5 Produces_5_1 ( +  ( * 9 Produces_5_2 ( +  ( * 6 Produces_5_3 ( +  ( * 2 Produces_5_4 ( +  ( * 4 Produces_5_5 5))))))))))))))))))))))))))))) (* 10 (+ Produces_6_5 (+ Produces_6_4 (+ Produces_6_3 (+ Produces_6_2 (+ Produces_6_1 (+ Produces_5_5 (+ Produces_5_4 (+ Produces_5_3 (+ Produces_5_2 (+ Produces_5_1 (+ Produces_4_5 (+ Produces_4_4 (+ Produces_4_3 (+ Produces_4_2 (+ Produces_4_1 (+ Produces_3_5 (+ Produces_3_4 (+ Produces_3_3 (+ Produces_3_2 (+ Produces_3_1 (+ Produces_2_5 (+ Produces_2_4 (+ Produces_2_3 (+ Produces_2_2 (+ Produces_2_1 (+ Produces_1_5 (+ Produces_1_4 (+ Produces_1_3 (+ Produces_1_2 Produces_1_1))))))))))))))))))))))))))))) ) ) )
(assert (>= 5 (* 1 (+ Produces_6_5 (+ Produces_6_4 (+ Produces_6_3 (+ Produces_6_2 (+ Produces_6_1 (+ Produces_5_5 (+ Produces_5_4 (+ Produces_5_3 (+ Produces_5_2 (+ Produces_5_1 (+ Produces_4_5 (+ Produces_4_4 (+ Produces_4_3 (+ Produces_4_2 (+ Produces_4_1 (+ Produces_3_5 (+ Produces_3_4 (+ Produces_3_3 (+ Produces_3_2 (+ Produces_3_1 (+ Produces_2_5 (+ Produces_2_4 (+ Produces_2_3 (+ Produces_2_2 (+ Produces_2_1 (+ Produces_1_5 (+ Produces_1_4 (+ Produces_1_3 (+ Produces_1_2 Produces_1_1))))))))))))))))))))))))))))) ) ) )
(assert (>= (- ( +  ( * 90 Produces_1_1 ( +  ( * 90 Produces_1_2 ( +  ( * 90 Produces_1_3 ( +  ( * 90 Produces_1_4 ( +  ( * 90 Produces_1_5 ( +  ( * 90 Produces_1_6 ( +  ( * 90 Produces_2_1 ( +  ( * 90 Produces_2_2 ( +  ( * 90 Produces_2_3 ( +  ( * 90 Produces_2_4 ( +  ( * 90 Produces_2_5 ( +  ( * 90 Produces_2_6 ( +  ( * 90 Produces_3_1 ( +  ( * 90 Produces_3_2 ( +  ( * 90 Produces_3_3 ( +  ( * 90 Produces_3_4 ( +  ( * 90 Produces_3_5 ( +  ( * 90 Produces_3_6 ( +  ( * 90 Produces_4_1 ( +  ( * 90 Produces_4_2 ( +  ( * 90 Produces_4_3 ( +  ( * 90 Produces_4_4 ( +  ( * 90 Produces_4_5 ( +  ( * 90 Produces_4_6 ( +  ( * 90 Produces_5_1 ( +  ( * 90 Produces_5_2 ( +  ( * 90 Produces_5_3 ( +  ( * 90 Produces_5_4 ( +  ( * 90 Produces_5_5 90))))))))))))))))))))))))))))) (+ ( +  ( * 110 Compras_1_1 ( +  ( * 120 Compras_1_2 ( +  ( * 130 Compras_1_3 ( +  ( * 110 Compras_1_4 ( +  ( * 115 Compras_1_5 ( +  ( * 130 Compras_1_6 ( +  ( * 130 Compras_2_1 ( +  ( * 110 Compras_2_2 ( +  ( * 90 Compras_2_3 ( +  ( * 115 Compras_2_4 ( +  ( * 110 Compras_2_5 ( +  ( * 140 Compras_2_6 ( +  ( * 130 Compras_3_1 ( +  ( * 100 Compras_3_2 ( +  ( * 95 Compras_3_3 ( +  ( * 100 Compras_3_4 ( +  ( * 120 Compras_3_5 ( +  ( * 150 Compras_3_6 ( +  ( * 110 Compras_4_1 ( +  ( * 105 Compras_4_2 ( +  ( * 70 Compras_4_3 ( +  ( * 80 Compras_4_4 ( +  ( * 120 Compras_4_5 ( +  ( * 60 Compras_4_6 ( +  ( * 115 Compras_5_1 ( +  ( * 90 Compras_5_2 ( +  ( * 100 Compras_5_3 ( +  ( * 140 Compras_5_4 ( +  ( * 80 Compras_5_5 135))))))))))))))))))))))))))))) ( +  ( * 11 AceiteDisponible_1_1 ( +  ( * 12 AceiteDisponible_1_2 ( +  ( * 13 AceiteDisponible_1_3 ( +  ( * 11 AceiteDisponible_1_4 ( +  ( * 11 AceiteDisponible_1_5 ( +  ( * 13 AceiteDisponible_1_6 ( +  ( * 13 AceiteDisponible_2_1 ( +  ( * 11 AceiteDisponible_2_2 ( +  ( * 9 AceiteDisponible_2_3 ( +  ( * 11 AceiteDisponible_2_4 ( +  ( * 11 AceiteDisponible_2_5 ( +  ( * 14 AceiteDisponible_2_6 ( +  ( * 13 AceiteDisponible_3_1 ( +  ( * 10 AceiteDisponible_3_2 ( +  ( * 9 AceiteDisponible_3_3 ( +  ( * 10 AceiteDisponible_3_4 ( +  ( * 12 AceiteDisponible_3_5 ( +  ( * 15 AceiteDisponible_3_6 ( +  ( * 11 AceiteDisponible_4_1 ( +  ( * 10 AceiteDisponible_4_2 ( +  ( * 9 AceiteDisponible_4_3 ( +  ( * 10 AceiteDisponible_4_4 ( +  ( * 14 AceiteDisponible_4_5 ( +  ( * 8 AceiteDisponible_4_6 ( +  ( * 13 AceiteDisponible_5_1 ( +  ( * 11 AceiteDisponible_5_2 ( +  ( * 9 AceiteDisponible_5_3 ( +  ( * 10 AceiteDisponible_5_4 ( +  ( * 11 AceiteDisponible_5_5 8))))))))))))))))))))))))))))) ) ) 10000 ) )
(assert (= AceiteDisponible_6_1 500 ) )
(assert (= AceiteDisponible_6_2 600 ) )
(assert (= AceiteDisponible_6_3 300 ) )
(assert (= AceiteDisponible_6_4 450 ) )
(assert (= AceiteDisponible_6_5 370 ) )
(assert (= AceiteDisponible_2_1 (+ (- Compras_2_1 Produces_2_1 ) AceiteDisponible_1_1 ) ) )
(assert (= AceiteDisponible_2_2 (+ (- Compras_2_2 Produces_2_2 ) AceiteDisponible_1_2 ) ) )
(assert (= AceiteDisponible_2_3 (+ (- Compras_2_3 Produces_2_3 ) AceiteDisponible_1_3 ) ) )
(assert (= AceiteDisponible_2_4 (+ (- Compras_2_4 Produces_2_4 ) AceiteDisponible_1_4 ) ) )
(assert (= AceiteDisponible_2_5 (+ (- Compras_2_5 Produces_2_5 ) AceiteDisponible_1_5 ) ) )
(assert (= AceiteDisponible_3_1 (+ (- Compras_3_1 Produces_3_1 ) AceiteDisponible_2_1 ) ) )
(assert (= AceiteDisponible_3_2 (+ (- Compras_3_2 Produces_3_2 ) AceiteDisponible_2_2 ) ) )
(assert (= AceiteDisponible_3_3 (+ (- Compras_3_3 Produces_3_3 ) AceiteDisponible_2_3 ) ) )
(assert (= AceiteDisponible_3_4 (+ (- Compras_3_4 Produces_3_4 ) AceiteDisponible_2_4 ) ) )
(assert (= AceiteDisponible_3_5 (+ (- Compras_3_5 Produces_3_5 ) AceiteDisponible_2_5 ) ) )
(assert (= AceiteDisponible_4_1 (+ (- Compras_4_1 Produces_4_1 ) AceiteDisponible_3_1 ) ) )
(assert (= AceiteDisponible_4_2 (+ (- Compras_4_2 Produces_4_2 ) AceiteDisponible_3_2 ) ) )
(assert (= AceiteDisponible_4_3 (+ (- Compras_4_3 Produces_4_3 ) AceiteDisponible_3_3 ) ) )
(assert (= AceiteDisponible_4_4 (+ (- Compras_4_4 Produces_4_4 ) AceiteDisponible_3_4 ) ) )
(assert (= AceiteDisponible_4_5 (+ (- Compras_4_5 Produces_4_5 ) AceiteDisponible_3_5 ) ) )
(assert (= AceiteDisponible_5_1 (+ (- Compras_5_1 Produces_5_1 ) AceiteDisponible_4_1 ) ) )
(assert (= AceiteDisponible_5_2 (+ (- Compras_5_2 Produces_5_2 ) AceiteDisponible_4_2 ) ) )
(assert (= AceiteDisponible_5_3 (+ (- Compras_5_3 Produces_5_3 ) AceiteDisponible_4_3 ) ) )
(assert (= AceiteDisponible_5_4 (+ (- Compras_5_4 Produces_5_4 ) AceiteDisponible_4_4 ) ) )
(assert (= AceiteDisponible_5_5 (+ (- Compras_5_5 Produces_5_5 ) AceiteDisponible_4_5 ) ) )
(assert (= AceiteDisponible_6_1 (+ (- Compras_6_1 Produces_6_1 ) AceiteDisponible_5_1 ) ) )
(assert (= AceiteDisponible_6_2 (+ (- Compras_6_2 Produces_6_2 ) AceiteDisponible_5_2 ) ) )
(assert (= AceiteDisponible_6_3 (+ (- Compras_6_3 Produces_6_3 ) AceiteDisponible_5_3 ) ) )
(assert (= AceiteDisponible_6_4 (+ (- Compras_6_4 Produces_6_4 ) AceiteDisponible_5_4 ) ) )
(assert (= AceiteDisponible_6_5 (+ (- Compras_6_5 Produces_6_5 ) AceiteDisponible_5_5 ) ) )
(assert (= AceiteDisponible_1_1 (- Compras_1_1 Produces_1_1 ) ) )
(assert (= AceiteDisponible_1_2 (- Compras_1_2 Produces_1_2 ) ) )
(assert (= AceiteDisponible_1_3 (- Compras_1_3 Produces_1_3 ) ) )
(assert (= AceiteDisponible_1_4 (- Compras_1_4 Produces_1_4 ) ) )
(assert (= AceiteDisponible_1_5 (- Compras_1_5 Produces_1_5 ) ) )
(assert (<= (+ Produces_6_2 (+ Produces_6_1 (+ Produces_5_2 (+ Produces_5_1 (+ Produces_4_2 (+ Produces_4_1 (+ Produces_3_2 (+ Produces_3_1 (+ Produces_2_2 (+ Produces_2_1 (+ Produces_1_2 Produces_1_1))))))))))) 3500 ) )
(assert (<= ( + Produces_1_3 Produces_1_4 Produces_1_5 Produces_1_6 Produces_2_3 Produces_2_4 Produces_2_5 Produces_2_6 Produces_3_3 Produces_3_4 Produces_3_5 Produces_3_6 Produces_4_3 Produces_4_4 Produces_4_5 Produces_4_6 Produces_5_3 Produces_5_4 Produces_5_5 Produces_5_6 Produces_6_3 Produces_6_4 Produces_6_5 Produces_6_6 ) 4050 ) )
(assert (<= AceiteDisponible_1_1 1000 ) )
(assert (<= AceiteDisponible_1_2 2000 ) )
(assert (<= AceiteDisponible_1_3 1000 ) )
(assert (<= AceiteDisponible_1_4 2000 ) )
(assert (<= AceiteDisponible_1_5 1000 ) )
(assert (<= AceiteDisponible_2_1 1000 ) )
(assert (<= AceiteDisponible_2_2 2000 ) )
(assert (<= AceiteDisponible_2_3 1000 ) )
(assert (<= AceiteDisponible_2_4 2000 ) )
(assert (<= AceiteDisponible_2_5 1000 ) )
(assert (<= AceiteDisponible_3_1 1000 ) )
(assert (<= AceiteDisponible_3_2 2000 ) )
(assert (<= AceiteDisponible_3_3 1000 ) )
(assert (<= AceiteDisponible_3_4 2000 ) )
(assert (<= AceiteDisponible_3_5 1000 ) )
(assert (<= AceiteDisponible_4_1 1000 ) )
(assert (<= AceiteDisponible_4_2 2000 ) )
(assert (<= AceiteDisponible_4_3 1000 ) )
(assert (<= AceiteDisponible_4_4 2000 ) )
(assert (<= AceiteDisponible_4_5 1000 ) )
(assert (<= AceiteDisponible_5_1 1000 ) )
(assert (<= AceiteDisponible_5_2 2000 ) )
(assert (<= AceiteDisponible_5_3 1000 ) )
(assert (<= AceiteDisponible_5_4 2000 ) )
(assert (<= AceiteDisponible_5_5 1000 ) )
(assert (<= AceiteDisponible_6_1 1000 ) )
(assert (<= AceiteDisponible_6_2 2000 ) )
(assert (<= AceiteDisponible_6_3 1000 ) )
(assert (<= AceiteDisponible_6_4 2000 ) )
(assert (<= AceiteDisponible_6_5 1000 ) )
(assert (>= Compras_1_1 0 ) )
(assert (>= Compras_1_2 0 ) )
(assert (>= Compras_1_3 0 ) )
(assert (>= Compras_1_4 0 ) )
(assert (>= Compras_1_5 0 ) )
(assert (>= Compras_2_1 0 ) )
(assert (>= Compras_2_2 0 ) )
(assert (>= Compras_2_3 0 ) )
(assert (>= Compras_2_4 0 ) )
(assert (>= Compras_2_5 0 ) )
(assert (>= Compras_3_1 0 ) )
(assert (>= Compras_3_2 0 ) )
(assert (>= Compras_3_3 0 ) )
(assert (>= Compras_3_4 0 ) )
(assert (>= Compras_3_5 0 ) )
(assert (>= Compras_4_1 0 ) )
(assert (>= Compras_4_2 0 ) )
(assert (>= Compras_4_3 0 ) )
(assert (>= Compras_4_4 0 ) )
(assert (>= Compras_4_5 0 ) )
(assert (>= Compras_5_1 0 ) )
(assert (>= Compras_5_2 0 ) )
(assert (>= Compras_5_3 0 ) )
(assert (>= Compras_5_4 0 ) )
(assert (>= Compras_5_5 0 ) )
(assert (>= Compras_6_1 0 ) )
(assert (>= Compras_6_2 0 ) )
(assert (>= Compras_6_3 0 ) )
(assert (>= Compras_6_4 0 ) )
(assert (>= Compras_6_5 0 ) )
(assert (>= AceiteDisponible_1_1 0 ) )
(assert (>= AceiteDisponible_1_2 0 ) )
(assert (>= AceiteDisponible_1_3 0 ) )
(assert (>= AceiteDisponible_1_4 0 ) )
(assert (>= AceiteDisponible_1_5 0 ) )
(assert (>= AceiteDisponible_2_1 0 ) )
(assert (>= AceiteDisponible_2_2 0 ) )
(assert (>= AceiteDisponible_2_3 0 ) )
(assert (>= AceiteDisponible_2_4 0 ) )
(assert (>= AceiteDisponible_2_5 0 ) )
(assert (>= AceiteDisponible_3_1 0 ) )
(assert (>= AceiteDisponible_3_2 0 ) )
(assert (>= AceiteDisponible_3_3 0 ) )
(assert (>= AceiteDisponible_3_4 0 ) )
(assert (>= AceiteDisponible_3_5 0 ) )
(assert (>= AceiteDisponible_4_1 0 ) )
(assert (>= AceiteDisponible_4_2 0 ) )
(assert (>= AceiteDisponible_4_3 0 ) )
(assert (>= AceiteDisponible_4_4 0 ) )
(assert (>= AceiteDisponible_4_5 0 ) )
(assert (>= AceiteDisponible_5_1 0 ) )
(assert (>= AceiteDisponible_5_2 0 ) )
(assert (>= AceiteDisponible_5_3 0 ) )
(assert (>= AceiteDisponible_5_4 0 ) )
(assert (>= AceiteDisponible_5_5 0 ) )
(assert (>= AceiteDisponible_6_1 0 ) )
(assert (>= AceiteDisponible_6_2 0 ) )
(assert (>= AceiteDisponible_6_3 0 ) )
(assert (>= AceiteDisponible_6_4 0 ) )
(assert (>= AceiteDisponible_6_5 0 ) )
(assert (>= Produces_1_1 0 ) )
(assert (>= Produces_2_1 0 ) )
(assert (>= Produces_3_1 0 ) )
(assert (>= Produces_4_1 0 ) )
(assert (>= Produces_5_1 0 ) )
(check-sat)
(get-value Compras_1_1 )
(get-value Compras_1_2 )
(get-value Compras_1_3 )
(get-value Compras_1_4 )
(get-value Compras_1_5 )
(get-value Compras_2_1 )
(get-value Compras_2_2 )
(get-value Compras_2_3 )
(get-value Compras_2_4 )
(get-value Compras_2_5 )
(get-value Compras_3_1 )
(get-value Compras_3_2 )
(get-value Compras_3_3 )
(get-value Compras_3_4 )
(get-value Compras_3_5 )
(get-value Compras_4_1 )
(get-value Compras_4_2 )
(get-value Compras_4_3 )
(get-value Compras_4_4 )
(get-value Compras_4_5 )
(get-value Compras_5_1 )
(get-value Compras_5_2 )
(get-value Compras_5_3 )
(get-value Compras_5_4 )
(get-value Compras_5_5 )
(get-value Compras_6_1 )
(get-value Compras_6_2 )
(get-value Compras_6_3 )
(get-value Compras_6_4 )
(get-value Compras_6_5 )
(get-value Produces_1_1 )
(get-value Produces_1_2 )
(get-value Produces_1_3 )
(get-value Produces_1_4 )
(get-value Produces_1_5 )
(get-value Produces_2_1 )
(get-value Produces_2_2 )
(get-value Produces_2_3 )
(get-value Produces_2_4 )
(get-value Produces_2_5 )
(get-value Produces_3_1 )
(get-value Produces_3_2 )
(get-value Produces_3_3 )
(get-value Produces_3_4 )
(get-value Produces_3_5 )
(get-value Produces_4_1 )
(get-value Produces_4_2 )
(get-value Produces_4_3 )
(get-value Produces_4_4 )
(get-value Produces_4_5 )
(get-value Produces_5_1 )
(get-value Produces_5_2 )
(get-value Produces_5_3 )
(get-value Produces_5_4 )
(get-value Produces_5_5 )
(get-value Produces_6_1 )
(get-value Produces_6_2 )
(get-value Produces_6_3 )
(get-value Produces_6_4 )
(get-value Produces_6_5 )
(get-value AceiteDisponible_1_1 )
(get-value AceiteDisponible_1_2 )
(get-value AceiteDisponible_1_3 )
(get-value AceiteDisponible_1_4 )
(get-value AceiteDisponible_1_5 )
(get-value AceiteDisponible_2_1 )
(get-value AceiteDisponible_2_2 )
(get-value AceiteDisponible_2_3 )
(get-value AceiteDisponible_2_4 )
(get-value AceiteDisponible_2_5 )
(get-value AceiteDisponible_3_1 )
(get-value AceiteDisponible_3_2 )
(get-value AceiteDisponible_3_3 )
(get-value AceiteDisponible_3_4 )
(get-value AceiteDisponible_3_5 )
(get-value AceiteDisponible_4_1 )
(get-value AceiteDisponible_4_2 )
(get-value AceiteDisponible_4_3 )
(get-value AceiteDisponible_4_4 )
(get-value AceiteDisponible_4_5 )
(get-value AceiteDisponible_5_1 )
(get-value AceiteDisponible_5_2 )
(get-value AceiteDisponible_5_3 )
(get-value AceiteDisponible_5_4 )
(get-value AceiteDisponible_5_5 )
(get-value AceiteDisponible_6_1 )
(get-value AceiteDisponible_6_2 )
(get-value AceiteDisponible_6_3 )
(get-value AceiteDisponible_6_4 )
(get-value AceiteDisponible_6_5 )
